Version identifier: 12.10.0.0 | 2019-11-26 | 843d4de
CPXPARAM_WorkMem                                 28672
Tried aggregator 2 times.
Aggregator did 30 substitutions.
Reduced MIP has 134 rows, 160 columns, and 620 nonzeros.
Reduced MIP has 160 binaries, 0 generals, 0 SOSs, and 0 indicators.
Presolve time = 0,00 sec. (0,59 ticks)
Found incumbent of value 640,000000 after 0,00 sec. (0,95 ticks)
Probing time = 0,00 sec. (0,23 ticks)
Tried aggregator 1 time.
Detecting symmetries...
MIP Presolve eliminated 24 rows and 0 columns.
MIP Presolve added 48 rows and 0 columns.
Reduced MIP has 158 rows, 160 columns, and 644 nonzeros.
Reduced MIP has 160 binaries, 0 generals, 0 SOSs, and 0 indicators.
Presolve time = 0,00 sec. (0,80 ticks)
Probing time = 0,00 sec. (0,22 ticks)
Clique table members: 430.
MIP emphasis: balance optimality and feasibility.
MIP search method: dynamic search.
Parallel mode: deterministic, using up to 16 threads.
Root relaxation solution time = 0,00 sec. (0,37 ticks)

        Nodes                                         Cuts/
   Node  Left     Objective  IInf  Best Integer    Best Bound    ItCnt     Gap

*     0+    0                          640,0000        0,0000           100,00%
*     0+    0                          307,0000        0,0000           100,00%
*     0+    0                          288,0000        0,0000           100,00%
      0     0      160,0000    60      288,0000      160,0000       48   44,44%
*     0+    0                          283,0000      160,0000            43,46%
      0     0      160,0000    60      283,0000     Cuts: 139       82   43,46%
      0     0      160,0000    60      283,0000      Cuts: 72      113   43,46%
*     0+    0                          258,0000      160,0000            37,98%
      0     2      169,8417    79      258,0000      160,0000      146   37,98%
Elapsed time = 0,04 sec. (17,12 ticks, tree = 0,02 MB, solutions = 5)

Clique cuts applied:  44
Cover cuts applied:  114
Mixed integer rounding cuts applied:  6
Zero-half cuts applied:  8

Root node processing (before b&c):
  Real time             =    0,04 sec. (17,02 ticks)
Parallel b&c, 16 threads:
  Real time             =    0,03 sec. (17,34 ticks)
  Sync time (average)   =    0,02 sec.
  Wait time (average)   =    0,00 sec.
                          ------------
Total (root+branch&cut) =    0,07 sec. (34,36 ticks)
